(set-info :source |printed by MathSAT|)
(declare-fun call__PRODUCER_CONSUMMER_.ite11.next () Int)
(declare-fun call_First.First () Int)
(declare-fun o1 () Int)
(declare-fun param_etat2 () Bool)
(declare-fun call_First.flby.next () Int)
(declare-fun o2 () Int)
(declare-fun call__PRODUCER_CONSUMMER_.ite8.next () Int)
(declare-fun call__PRODUCER_CONSUMMER_.ite4 () Int)
(declare-fun call__PRODUCER_CONSUMMER_.ite3 () Int)
(declare-fun call__PRODUCER_CONSUMMER_.o1.next () Int)
(declare-fun call__PRODUCER_CONSUMMER_.flby2 () Int)
(declare-fun call__PRODUCER_CONSUMMER_.o2 () Int)
(declare-fun a.next () Int)
(declare-fun call__PRODUCER_CONSUMMER_.o2.next () Int)
(declare-fun call__PRODUCER_CONSUMMER_.garde2.next () Bool)
(declare-fun call__PRODUCER_CONSUMMER_.ite7.next () Int)
(declare-fun call__PRODUCER_CONSUMMER_.o1 () Int)
(declare-fun call__PRODUCER_CONSUMMER_.i.next () Int)
(declare-fun call__PRODUCER_CONSUMMER_.flby.next () Int)
(declare-fun o2.next () Int)
(declare-fun call__PRODUCER_CONSUMMER_.b () Int)
(declare-fun call__PRODUCER_CONSUMMER_.ite10.next () Int)
(declare-fun param_etat3.next () Bool)
(declare-fun env.next () Bool)
(declare-fun b () Int)
(declare-fun i () Int)
(declare-fun call__PRODUCER_CONSUMMER_.flby3 () Int)
(declare-fun call__PRODUCER_CONSUMMER_.flby () Int)
(declare-fun b.next () Int)
(declare-fun call__PRODUCER_CONSUMMER_.ite5.next () Int)
(declare-fun call_Sofar.flby.next () Bool)
(declare-fun call__PRODUCER_CONSUMMER_.flby3.next () Int)
(declare-fun i.next () Int)
(declare-fun param_etat1 () Bool)
(declare-fun param_etat2.next () Bool)
(declare-fun a () Int)
(declare-fun call__PRODUCER_CONSUMMER_.a () Int)
(declare-fun call__PRODUCER_CONSUMMER_.ite6.next () Int)
(declare-fun call_Sofar.flby () Bool)
(declare-fun call__PRODUCER_CONSUMMER_.garde3.next () Bool)
(declare-fun env () Bool)
(declare-fun call_Sofar.Sofar.next () Bool)
(declare-fun call_Sofar.Sofar () Bool)
(declare-fun call__PRODUCER_CONSUMMER_.flby4.next () Int)
(declare-fun call_First.First.next () Int)
(declare-fun param_etat1.next () Bool)
(declare-fun call__PRODUCER_CONSUMMER_.ite9.next () Int)
(declare-fun call__PRODUCER_CONSUMMER_.garde1.next () Bool)
(declare-fun call__PRODUCER_CONSUMMER_.a.next () Int)
(declare-fun call__PRODUCER_CONSUMMER_.ite3.next () Int)
(declare-fun call__PRODUCER_CONSUMMER_.ite5 () Int)
(declare-fun param_etat3 () Bool)
(declare-fun call__PRODUCER_CONSUMMER_.ite6 () Int)
(declare-fun _OK_ () Bool)
(declare-fun call__PRODUCER_CONSUMMER_.b.next () Int)
(declare-fun call__PRODUCER_CONSUMMER_.ite7 () Int)
(declare-fun call__PRODUCER_CONSUMMER_.flby5.next () Int)
(declare-fun call_excludes3.excludes () Bool)
(declare-fun _OK_.next () Bool)
(declare-fun call__PRODUCER_CONSUMMER_.i () Int)
(declare-fun call_excludes3.excludes.next () Bool)
(declare-fun call__PRODUCER_CONSUMMER_.ite.next () Int)
(declare-fun call__PRODUCER_CONSUMMER_.flby5 () Int)
(declare-fun call__PRODUCER_CONSUMMER_.ite4.next () Int)
(declare-fun o1.next () Int)
(declare-fun call__PRODUCER_CONSUMMER_.ite2.next () Int)
(declare-fun call__PRODUCER_CONSUMMER_.flby2.next () Int)
(declare-fun call__PRODUCER_CONSUMMER_.flby4 () Int)
(declare-fun call_First.flby () Int)
(define-fun .def_644 () Bool (= call_First.flby.next call_First.First.next))
(define-fun .def_642 () Bool (= call_Sofar.flby.next call_Sofar.Sofar.next))
(define-fun .def_637 () Bool (and param_etat2.next param_etat3.next))
(define-fun .def_635 () Bool (and param_etat1.next param_etat3.next))
(define-fun .def_634 () Bool (and param_etat2.next param_etat1.next))
(define-fun .def_636 () Bool (or .def_634 .def_635))
(define-fun .def_638 () Bool (or .def_636 .def_637))
(define-fun .def_639 () Bool (not .def_638))
(define-fun .def_640 () Bool (= call_excludes3.excludes.next .def_639))
(define-fun .def_632 () Bool (= call__PRODUCER_CONSUMMER_.flby5.next call__PRODUCER_CONSUMMER_.o2.next))
(define-fun .def_630 () Bool (= call__PRODUCER_CONSUMMER_.flby4.next call__PRODUCER_CONSUMMER_.o1.next))
(define-fun .def_628 () Bool (= call__PRODUCER_CONSUMMER_.flby3.next call__PRODUCER_CONSUMMER_.a.next))
(define-fun .def_626 () Bool (= call__PRODUCER_CONSUMMER_.flby2.next call__PRODUCER_CONSUMMER_.b.next))
(define-fun .def_624 () Bool (= call__PRODUCER_CONSUMMER_.flby.next call__PRODUCER_CONSUMMER_.i.next))
(define-fun .def_620 () Bool (= call__PRODUCER_CONSUMMER_.ite4.next call__PRODUCER_CONSUMMER_.ite6.next))
(define-fun .def_459 () Bool (not param_etat2.next))
(define-fun .def_621 () Bool (or .def_459 .def_620))
(define-fun .def_618 () Bool (= call__PRODUCER_CONSUMMER_.ite5.next call__PRODUCER_CONSUMMER_.ite6.next))
(define-fun .def_619 () Bool (or param_etat2.next .def_618))
(define-fun .def_622 () Bool (and .def_619 .def_621))
(define-fun .def_614 () Bool (= call__PRODUCER_CONSUMMER_.ite3.next call__PRODUCER_CONSUMMER_.ite7.next))
(define-fun .def_468 () Bool (not param_etat1.next))
(define-fun .def_615 () Bool (or .def_468 .def_614))
(define-fun .def_612 () Bool (= call__PRODUCER_CONSUMMER_.ite7.next call__PRODUCER_CONSUMMER_.ite6.next))
(define-fun .def_613 () Bool (or param_etat1.next .def_612))
(define-fun .def_616 () Bool (and .def_613 .def_615))
(define-fun .def_605 () Bool (<= call_First.First.next 0))
(define-fun .def_606 () Bool (not .def_605))
(define-fun .def_608 () Bool (and .def_606 call_Sofar.Sofar.next))
(define-fun .def_609 () Bool (= env.next .def_608))
(define-fun .def_602 () Bool (= o2.next call__PRODUCER_CONSUMMER_.o2.next))
(define-fun .def_599 () Bool (= o1.next call__PRODUCER_CONSUMMER_.o1.next))
(define-fun .def_596 () Bool (= a.next call__PRODUCER_CONSUMMER_.a.next))
(define-fun .def_593 () Bool (= b.next call__PRODUCER_CONSUMMER_.b.next))
(define-fun .def_589 () Bool (= i.next call__PRODUCER_CONSUMMER_.i.next))
(define-fun .def_580 () Int (* (- 1) o2.next))
(define-fun .def_581 () Int (* (- 1) o1.next))
(define-fun .def_582 () Int (+ .def_581 .def_580))
(define-fun .def_583 () Int (+ a.next .def_582))
(define-fun .def_584 () Bool (<= 0 .def_583))
(define-fun .def_573 () Bool (not env.next))
(define-fun .def_585 () Bool (or .def_573 .def_584))
(define-fun .def_586 () Bool (= _OK_.next .def_585))
(define-fun .def_590 () Bool (and .def_586 .def_589))
(define-fun .def_594 () Bool (and .def_590 .def_593))
(define-fun .def_597 () Bool (and .def_594 .def_596))
(define-fun .def_600 () Bool (and .def_597 .def_599))
(define-fun .def_603 () Bool (and .def_600 .def_602))
(define-fun .def_610 () Bool (and .def_603 .def_609))
(define-fun .def_617 () Bool (and .def_610 .def_616))
(define-fun .def_623 () Bool (and .def_617 .def_622))
(define-fun .def_625 () Bool (and .def_623 .def_624))
(define-fun .def_627 () Bool (and .def_625 .def_626))
(define-fun .def_629 () Bool (and .def_627 .def_628))
(define-fun .def_631 () Bool (and .def_629 .def_630))
(define-fun .def_633 () Bool (and .def_631 .def_632))
(define-fun .def_641 () Bool (and .def_633 .def_640))
(define-fun .def_643 () Bool (and .def_641 .def_642))
(define-fun .def_645 () Bool (and .def_643 .def_644))
(define-fun .def_450 () Bool (= call_First.flby call_First.First))
(define-fun .def_448 () Bool (= call_Sofar.flby call_Sofar.Sofar))
(define-fun .def_443 () Bool (and param_etat2 param_etat3))
(define-fun .def_441 () Bool (and param_etat1 param_etat3))
(define-fun .def_440 () Bool (and param_etat2 param_etat1))
(define-fun .def_442 () Bool (or .def_440 .def_441))
(define-fun .def_444 () Bool (or .def_442 .def_443))
(define-fun .def_445 () Bool (not .def_444))
(define-fun .def_446 () Bool (= call_excludes3.excludes .def_445))
(define-fun .def_438 () Bool (= call__PRODUCER_CONSUMMER_.flby5 call__PRODUCER_CONSUMMER_.o2))
(define-fun .def_436 () Bool (= call__PRODUCER_CONSUMMER_.flby4 call__PRODUCER_CONSUMMER_.o1))
(define-fun .def_434 () Bool (= call__PRODUCER_CONSUMMER_.a call__PRODUCER_CONSUMMER_.flby3))
(define-fun .def_432 () Bool (= call__PRODUCER_CONSUMMER_.flby2 call__PRODUCER_CONSUMMER_.b))
(define-fun .def_430 () Bool (= call__PRODUCER_CONSUMMER_.flby call__PRODUCER_CONSUMMER_.i))
(define-fun .def_426 () Bool (= call__PRODUCER_CONSUMMER_.ite6 call__PRODUCER_CONSUMMER_.ite4))
(define-fun .def_334 () Bool (not param_etat2))
(define-fun .def_427 () Bool (or .def_334 .def_426))
(define-fun .def_423 () Bool (= call__PRODUCER_CONSUMMER_.ite6 call__PRODUCER_CONSUMMER_.ite5))
(define-fun .def_424 () Bool (or param_etat2 .def_423))
(define-fun .def_428 () Bool (and .def_424 .def_427))
(define-fun .def_418 () Bool (= call__PRODUCER_CONSUMMER_.ite7 call__PRODUCER_CONSUMMER_.ite3))
(define-fun .def_340 () Bool (not param_etat1))
(define-fun .def_419 () Bool (or .def_340 .def_418))
(define-fun .def_415 () Bool (= call__PRODUCER_CONSUMMER_.ite7 call__PRODUCER_CONSUMMER_.ite6))
(define-fun .def_416 () Bool (or param_etat1 .def_415))
(define-fun .def_420 () Bool (and .def_416 .def_419))
(define-fun .def_407 () Bool (<= call_First.First 0))
(define-fun .def_408 () Bool (not .def_407))
(define-fun .def_410 () Bool (and .def_408 call_Sofar.Sofar))
(define-fun .def_411 () Bool (= env .def_410))
(define-fun .def_404 () Bool (= o2 call__PRODUCER_CONSUMMER_.o2))
(define-fun .def_401 () Bool (= o1 call__PRODUCER_CONSUMMER_.o1))
(define-fun .def_398 () Bool (= call__PRODUCER_CONSUMMER_.a a))
(define-fun .def_396 () Bool (= b call__PRODUCER_CONSUMMER_.b))
(define-fun .def_392 () Bool (= i call__PRODUCER_CONSUMMER_.i))
(define-fun .def_383 () Int (* (- 1) o2))
(define-fun .def_384 () Int (* (- 1) o1))
(define-fun .def_385 () Int (+ .def_384 .def_383))
(define-fun .def_386 () Int (+ a .def_385))
(define-fun .def_387 () Bool (<= 0 .def_386))
(define-fun .def_376 () Bool (not env))
(define-fun .def_388 () Bool (or .def_376 .def_387))
(define-fun .def_389 () Bool (= _OK_ .def_388))
(define-fun .def_393 () Bool (and .def_389 .def_392))
(define-fun .def_397 () Bool (and .def_393 .def_396))
(define-fun .def_399 () Bool (and .def_397 .def_398))
(define-fun .def_402 () Bool (and .def_399 .def_401))
(define-fun .def_405 () Bool (and .def_402 .def_404))
(define-fun .def_412 () Bool (and .def_405 .def_411))
(define-fun .def_421 () Bool (and .def_412 .def_420))
(define-fun .def_429 () Bool (and .def_421 .def_428))
(define-fun .def_431 () Bool (and .def_429 .def_430))
(define-fun .def_433 () Bool (and .def_431 .def_432))
(define-fun .def_435 () Bool (and .def_433 .def_434))
(define-fun .def_437 () Bool (and .def_435 .def_436))
(define-fun .def_439 () Bool (and .def_437 .def_438))
(define-fun .def_447 () Bool (and .def_439 .def_446))
(define-fun .def_449 () Bool (and .def_447 .def_448))
(define-fun .def_451 () Bool (and .def_449 .def_450))
(define-fun .def_646 () Bool (and .def_451 .def_645))
(define-fun .def_569 () Bool (= call_First.First call_First.flby.next))
(define-fun .def_564 () Bool (and call_Sofar.Sofar call_excludes3.excludes.next))
(define-fun .def_566 () Bool (= .def_564 call_Sofar.flby.next))
(define-fun .def_561 () Bool (= call__PRODUCER_CONSUMMER_.ite11.next call__PRODUCER_CONSUMMER_.flby5.next))
(define-fun .def_558 () Bool (= call__PRODUCER_CONSUMMER_.ite9.next call__PRODUCER_CONSUMMER_.flby4.next))
(define-fun .def_555 () Bool (= call__PRODUCER_CONSUMMER_.a call__PRODUCER_CONSUMMER_.flby3.next))
(define-fun .def_552 () Bool (= call__PRODUCER_CONSUMMER_.ite7.next call__PRODUCER_CONSUMMER_.flby2.next))
(define-fun .def_548 () Bool (= call__PRODUCER_CONSUMMER_.ite2.next call__PRODUCER_CONSUMMER_.flby.next))
(define-fun .def_542 () Bool (<= 1 call__PRODUCER_CONSUMMER_.b))
(define-fun .def_545 () Bool (= call__PRODUCER_CONSUMMER_.garde3.next .def_542))
(define-fun .def_543 () Bool (= call__PRODUCER_CONSUMMER_.garde2.next .def_542))
(define-fun .def_539 () Bool (<= 1 call__PRODUCER_CONSUMMER_.i))
(define-fun .def_540 () Bool (= call__PRODUCER_CONSUMMER_.garde1.next .def_539))
(define-fun .def_533 () Int (* (- 1) call__PRODUCER_CONSUMMER_.ite10.next))
(define-fun .def_534 () Int (+ call__PRODUCER_CONSUMMER_.o2 .def_533))
(define-fun .def_535 () Bool (= .def_534 (- 1)))
(define-fun .def_516 () Bool (not call__PRODUCER_CONSUMMER_.garde3.next))
(define-fun .def_536 () Bool (or .def_516 .def_535))
(define-fun .def_531 () Bool (= call__PRODUCER_CONSUMMER_.o2 call__PRODUCER_CONSUMMER_.ite10.next))
(define-fun .def_532 () Bool (or call__PRODUCER_CONSUMMER_.garde3.next .def_531))
(define-fun .def_537 () Bool (and .def_532 .def_536))
(define-fun .def_525 () Int (* (- 1) call__PRODUCER_CONSUMMER_.ite8.next))
(define-fun .def_526 () Int (+ call__PRODUCER_CONSUMMER_.o1 .def_525))
(define-fun .def_527 () Bool (= .def_526 (- 1)))
(define-fun .def_505 () Bool (not call__PRODUCER_CONSUMMER_.garde2.next))
(define-fun .def_528 () Bool (or .def_505 .def_527))
(define-fun .def_523 () Bool (= call__PRODUCER_CONSUMMER_.o1 call__PRODUCER_CONSUMMER_.ite8.next))
(define-fun .def_524 () Bool (or call__PRODUCER_CONSUMMER_.garde2.next .def_523))
(define-fun .def_529 () Bool (and .def_524 .def_528))
(define-fun .def_519 () Bool (= call__PRODUCER_CONSUMMER_.b call__PRODUCER_CONSUMMER_.ite5.next))
(define-fun .def_520 () Bool (or call__PRODUCER_CONSUMMER_.garde3.next .def_519))
(define-fun .def_512 () Int (* (- 1) call__PRODUCER_CONSUMMER_.ite5.next))
(define-fun .def_513 () Int (+ call__PRODUCER_CONSUMMER_.b .def_512))
(define-fun .def_514 () Bool (= .def_513 1))
(define-fun .def_517 () Bool (or .def_514 .def_516))
(define-fun .def_508 () Bool (= call__PRODUCER_CONSUMMER_.b call__PRODUCER_CONSUMMER_.ite4.next))
(define-fun .def_509 () Bool (or call__PRODUCER_CONSUMMER_.garde2.next .def_508))
(define-fun .def_501 () Int (* (- 1) call__PRODUCER_CONSUMMER_.ite4.next))
(define-fun .def_502 () Int (+ call__PRODUCER_CONSUMMER_.b .def_501))
(define-fun .def_503 () Bool (= .def_502 1))
(define-fun .def_506 () Bool (or .def_503 .def_505))
(define-fun .def_495 () Int (* (- 1) call__PRODUCER_CONSUMMER_.ite3.next))
(define-fun .def_496 () Int (+ call__PRODUCER_CONSUMMER_.b .def_495))
(define-fun .def_497 () Bool (= .def_496 (- 1)))
(define-fun .def_488 () Bool (not call__PRODUCER_CONSUMMER_.garde1.next))
(define-fun .def_498 () Bool (or .def_488 .def_497))
(define-fun .def_493 () Bool (= call__PRODUCER_CONSUMMER_.b call__PRODUCER_CONSUMMER_.ite3.next))
(define-fun .def_494 () Bool (or call__PRODUCER_CONSUMMER_.garde1.next .def_493))
(define-fun .def_499 () Bool (and .def_494 .def_498))
(define-fun .def_507 () Bool (and .def_499 .def_506))
(define-fun .def_510 () Bool (and .def_507 .def_509))
(define-fun .def_518 () Bool (and .def_510 .def_517))
(define-fun .def_521 () Bool (and .def_518 .def_520))
(define-fun .def_485 () Int (* (- 1) call__PRODUCER_CONSUMMER_.ite.next))
(define-fun .def_486 () Int (+ call__PRODUCER_CONSUMMER_.i .def_485))
(define-fun .def_487 () Bool (= .def_486 1))
(define-fun .def_489 () Bool (or .def_487 .def_488))
(define-fun .def_482 () Bool (= call__PRODUCER_CONSUMMER_.i call__PRODUCER_CONSUMMER_.ite.next))
(define-fun .def_484 () Bool (or .def_482 call__PRODUCER_CONSUMMER_.garde1.next))
(define-fun .def_490 () Bool (and .def_484 .def_489))
(define-fun .def_478 () Bool (not param_etat3.next))
(define-fun .def_477 () Bool (= call__PRODUCER_CONSUMMER_.ite11.next call__PRODUCER_CONSUMMER_.ite10.next))
(define-fun .def_479 () Bool (or .def_477 .def_478))
(define-fun .def_473 () Bool (= call__PRODUCER_CONSUMMER_.o2 call__PRODUCER_CONSUMMER_.ite11.next))
(define-fun .def_475 () Bool (or .def_473 param_etat3.next))
(define-fun .def_480 () Bool (and .def_475 .def_479))
(define-fun .def_467 () Bool (= call__PRODUCER_CONSUMMER_.ite2.next call__PRODUCER_CONSUMMER_.ite.next))
(define-fun .def_469 () Bool (or .def_467 .def_468))
(define-fun .def_463 () Bool (= call__PRODUCER_CONSUMMER_.i call__PRODUCER_CONSUMMER_.ite2.next))
(define-fun .def_465 () Bool (or .def_463 param_etat1.next))
(define-fun .def_470 () Bool (and .def_465 .def_469))
(define-fun .def_458 () Bool (= call__PRODUCER_CONSUMMER_.ite9.next call__PRODUCER_CONSUMMER_.ite8.next))
(define-fun .def_460 () Bool (or .def_458 .def_459))
(define-fun .def_454 () Bool (= call__PRODUCER_CONSUMMER_.o1 call__PRODUCER_CONSUMMER_.ite9.next))
(define-fun .def_456 () Bool (or .def_454 param_etat2.next))
(define-fun .def_461 () Bool (and .def_456 .def_460))
(define-fun .def_471 () Bool (and .def_461 .def_470))
(define-fun .def_481 () Bool (and .def_471 .def_480))
(define-fun .def_491 () Bool (and .def_481 .def_490))
(define-fun .def_522 () Bool (and .def_491 .def_521))
(define-fun .def_530 () Bool (and .def_522 .def_529))
(define-fun .def_538 () Bool (and .def_530 .def_537))
(define-fun .def_541 () Bool (and .def_538 .def_540))
(define-fun .def_544 () Bool (and .def_541 .def_543))
(define-fun .def_546 () Bool (and .def_544 .def_545))
(define-fun .def_549 () Bool (and .def_546 .def_548))
(define-fun .def_553 () Bool (and .def_549 .def_552))
(define-fun .def_556 () Bool (and .def_553 .def_555))
(define-fun .def_559 () Bool (and .def_556 .def_558))
(define-fun .def_562 () Bool (and .def_559 .def_561))
(define-fun .def_567 () Bool (and .def_562 .def_566))
(define-fun .def_570 () Bool (and .def_567 .def_569))
(define-fun .def_647 () Bool (and .def_570 .def_646))
(assert .def_647)
